c turning on binary mode checking
c parsing input formula with 259840 variables and 1039929 clauses
c finished parsing, read 2888678 bytes from proof file
c detected empty clause; start verification via backward checking
c 1871 of 1039929 clauses in core                            
c 591 of 121379 lemmas in core using 15209 resolution steps
c 0 RAT lemmas in core; 19 redundant literals in core lemmas
s VERIFIED
c verification time: 1.213 seconds
